p cnf 18 29
12 1 5 0
12 -2 5 0
12 -5 -1 2 0
13 -1 6 0
13 2 6 0
13 -6 1 -2 0
14 3 7 0
14 -4 7 0
14 -7 -3 4 0
15 -3 8 0
15 4 8 0
15 -8 3 -4 0
16 -5 -6 9 0
16 -9 5 0
16 -9 6 0
17 -7 -8 10 0
17 -10 7 0
17 -10 8 0
18 9 11 0
18 10 11 0
18 -11 -9 -10 0
11 0
-12 0
-13 0
-14 0
-15 0
-16 0
-17 0
-18 0